161
100000
12998
44780
87622
49256
49748
1052
24373
65831
54993
68960
18342
1424
77793
16045
55023
25585
65110
38088
22207
50284
50252
20129
50358
11678
12129
50621
11339
39890
57800
26510
8667
59264
4678
73877
48991
15744
44926
89330
542
65046
40110
10992
15024
10133
71804
1768
40765
33511
51
22398
79054
70269
44073
67739
43797
18839
70720
36470
28196
31985
8665
65432
55220
36801
5441
25724
16525
4678
45912
8501
76433
79960
53859
9720
27318
24878
34890
53098
63889
32709
49642
17027
7116
26123
26095
25907
20040
47905
46861
90028
31947
11589
13539
12378
69906
83475
5343
45303
3511
54863
35653
99508
26296
23929
40736
67291
24821
9972
36111
11699
36201
3798
2991
48272
9461
18376
83475
23567
29280
11075
86307
46141
45850
25107
41707
17483
3752
69822
860
34202
29731
67640
81892
68970
1845
88925
18821
16525
72137
70893
13693
54150
5495
29107
2005
28910
29383
4818
27321
98155
20946
95322
31
84976
83955
49379
492
8185
5207
3105
97009
